(set-option :print-success false)
(set-logic QF_UF)
(declare-sort x84 0)
(declare-sort x97 0)
(declare-fun x90 () x97)
(declare-fun x58 () x97)
(declare-fun x158 () x97)
(declare-fun x100 () x97)
(declare-fun x80 () x97)
(declare-fun x106 (x97 x97) x97)
(assert (not (and (and (and (= (x106 x90 x158) x80) (= (x106 x58 x158) x90)) (= x58 (x106 x158 x100))) (= x100 (x106 x158 x158)))))
(assert (not (and (= (x106 x158 x158) x58) (and (and (= (x106 x90 x158) x80) (= x100 (x106 x80 x158))) (= (x106 x158 x58) x90)))))
(assert (let ((x59 (x106 x158 x158)) (x118 (x106 x58 x58)) (x11 (x106 x100 x100)) (x9 (x106 x80 x80)) (x71 (x106 x90 x90))) (or (and (not (= x58 x118)) (and (not (= x59 x58)) (and (and (not (= x71 x58)) (not (= x58 x9))) (not (= x58 x11))))) (or (or (and (not (= x100 x118)) (and (and (and (not (= x100 x71)) (not (= x9 x100))) (not (= x100 x11))) (not (= x100 x59)))) (or (and (not (= x118 x80)) (and (and (not (= x11 x80)) (and (not (= x9 x80)) (not (= x80 x71)))) (not (= x59 x80)))) (and (and (and (not (= x90 x11)) (and (not (= x90 x71)) (not (= x9 x90)))) (not (= x59 x90))) (not (= x90 x118))))) (and (not (= x158 x118)) (and (not (= x59 x158)) (and (not (= x158 x11)) (and (not (= x71 x158)) (not (= x158 x9))))))))))
(assert (and (and (and (or (= (x106 x58 (x106 x100 x58)) x100) (or (or (or (= x100 (x106 x90 (x106 x100 x90))) (= (x106 x80 (x106 x100 x80)) x100)) (= x100 (x106 x100 (x106 x100 x100)))) (= x100 (x106 x158 (x106 x100 x158))))) (and (or (or (= (x106 x158 (x106 x80 x158)) x80) (or (or (= (x106 x90 (x106 x80 x90)) x80) (= (x106 x80 (x106 x80 x80)) x80)) (= x80 (x106 x100 (x106 x80 x100))))) (= x80 (x106 x58 (x106 x80 x58)))) (or (or (or (or (= x90 (x106 x80 (x106 x90 x80))) (= (x106 x90 (x106 x90 x90)) x90)) (= x90 (x106 x100 (x106 x90 x100)))) (= x90 (x106 x158 (x106 x90 x158)))) (= (x106 x58 (x106 x90 x58)) x90)))) (or (= x158 (x106 x58 (x106 x158 x58))) (or (or (or (= (x106 x80 (x106 x158 x80)) x158) (= x158 (x106 x90 (x106 x158 x90)))) (= (x106 x100 (x106 x158 x100)) x158)) (= x158 (x106 x158 (x106 x158 x158)))))) (or (or (= (x106 x158 (x106 x58 x158)) x58) (or (= (x106 x100 (x106 x58 x100)) x58) (or (= x58 (x106 x90 (x106 x58 x90))) (= (x106 x80 (x106 x58 x80)) x58)))) (= x58 (x106 x58 (x106 x58 x58))))))
(assert (not (and (= (x106 x58 x58) x158) (and (= x80 (x106 x58 x158)) (and (= (x106 x100 x58) x90) (= x100 (x106 x80 x58)))))))
(assert (not (and (= x90 (x106 x158 x158)) (and (= x100 (x106 x158 x90)) (and (= x58 (x106 x80 x158)) (= x80 (x106 x100 x158)))))))
(assert (not (and (and (and (= x158 (x106 x80 x58)) (= x90 (x106 x158 x58))) (= (x106 x58 x100) x80)) (= (x106 x58 x58) x100))))
(assert (not (and (and (= (x106 x158 x58) x80) (and (= (x106 x80 x158) x90) (= (x106 x90 x158) x100))) (= (x106 x158 x158) x58))))
(assert (not (and (and (and (= x100 (x106 x158 x80)) (= (x106 x100 x80) x58)) (= x158 (x106 x80 x90))) (= x90 (x106 x80 x80)))))
(assert (not (and (and (and (= x80 (x106 x58 x158)) (= x90 (x106 x80 x158))) (= x58 (x106 x158 x100))) (= (x106 x158 x158) x100))))
(assert (not (and (= x158 (x106 x90 x90)) (and (and (= x80 (x106 x58 x90)) (= (x106 x80 x90) x100)) (= (x106 x90 x158) x58)))))
(assert (not (and (= x158 (x106 x100 x100)) (and (= x90 (x106 x100 x158)) (and (= (x106 x58 x100) x80) (= x58 (x106 x90 x100)))))))
(assert (not (and (and (= (x106 x58 x80) x158) (and (= x100 (x106 x90 x58)) (= (x106 x158 x58) x90))) (= (x106 x58 x58) x80))))
(assert (not (and (= x100 (x106 x90 x90)) (and (= x80 (x106 x90 x100)) (and (= x58 (x106 x80 x90)) (= x158 (x106 x58 x90)))))))
(assert (or (or (or (= (x106 x100 x100) x100) (or (= x80 (x106 x80 x80)) (= x90 (x106 x90 x90)))) (= x158 (x106 x158 x158))) (= (x106 x58 x58) x58)))
(assert (not (and (and (and (= x90 (x106 x80 x158)) (= (x106 x100 x158) x80)) (= (x106 x158 x58) x100)) (= x58 (x106 x158 x158)))))
(assert (not (and (and (and (= x80 (x106 x158 x90)) (= (x106 x58 x90) x158)) (= (x106 x90 x100) x58)) (= (x106 x90 x90) x100))))
(assert (not (and (and (= (x106 x58 x100) x158) (and (= x90 (x106 x158 x58)) (= x80 (x106 x90 x58)))) (= (x106 x58 x58) x100))))
(assert (not (and (and (and (= x58 (x106 x90 x158)) (= (x106 x80 x158) x90)) (= (x106 x158 x100) x80)) (= (x106 x158 x158) x100))))
(assert (not (and (= x100 (x106 x58 x58)) (and (= x90 (x106 x58 x100)) (and (= x158 (x106 x90 x58)) (= x80 (x106 x158 x58)))))))
(assert (not (and (and (= x58 (x106 x100 x90)) (and (= (x106 x58 x100) x158) (= x80 (x106 x158 x100)))) (= x90 (x106 x100 x100)))))
(assert (not (and (= x90 (x106 x58 x58)) (and (= (x106 x58 x90) x80) (and (= (x106 x100 x58) x158) (= (x106 x80 x58) x100))))))
(assert (not (and (and (= (x106 x80 x58) x158) (and (= x100 (x106 x90 x80)) (= (x106 x158 x80) x90))) (= x58 (x106 x80 x80)))))
(assert (not (and (= x58 (x106 x90 x90)) (and (and (= x158 (x106 x100 x90)) (= (x106 x158 x90) x80)) (= (x106 x90 x58) x100)))))
(assert (not (and (and (and (= x100 (x106 x158 x58)) (= (x106 x80 x58) x158)) (= (x106 x58 x90) x80)) (= (x106 x58 x58) x90))))
(assert (not (and (and (= (x106 x158 x80) x100) (and (= (x106 x90 x158) x58) (= x90 (x106 x100 x158)))) (= x80 (x106 x158 x158)))))
(assert (not (and (and (= (x106 x90 x100) x158) (and (= (x106 x158 x90) x58) (= x80 (x106 x58 x90)))) (= x100 (x106 x90 x90)))))
(assert (not (and (= (x106 x58 x58) x158) (and (= x100 (x106 x58 x158)) (and (= (x106 x80 x58) x90) (= (x106 x100 x58) x80))))))
(assert (not (and (= x80 (x106 x90 x90)) (and (and (= x58 (x106 x100 x90)) (= x100 (x106 x158 x90))) (= x158 (x106 x90 x80))))))
(assert (not (and (= (x106 x58 x58) x100) (and (= (x106 x58 x100) x90) (and (= (x106 x80 x58) x158) (= x80 (x106 x90 x58)))))))
(assert (not (and (and (and (= (x106 x90 x158) x58) (= (x106 x58 x158) x80)) (= (x106 x158 x100) x90)) (= (x106 x158 x158) x100))))
(assert (not (and (= (x106 x100 x100) x58) (and (and (= (x106 x158 x100) x90) (= (x106 x80 x100) x158)) (= x80 (x106 x100 x58))))))
(assert (not (and (= x58 (x106 x90 x90)) (and (= x158 (x106 x90 x58)) (and (= (x106 x80 x90) x100) (= x80 (x106 x158 x90)))))))
(assert (not (and (and (= x158 (x106 x100 x90)) (and (= x80 (x106 x58 x100)) (= x58 (x106 x158 x100)))) (= x90 (x106 x100 x100)))))
(assert (not (and (= x58 (x106 x100 x100)) (and (and (= x80 (x106 x90 x100)) (= (x106 x158 x100) x90)) (= (x106 x100 x58) x158)))))
(assert (not (and (and (= (x106 x100 x58) x80) (and (= (x106 x80 x100) x90) (= (x106 x90 x100) x158))) (= x58 (x106 x100 x100)))))
(assert (not (and (= (x106 x90 x90) x158) (and (= x58 (x106 x90 x158)) (and (= (x106 x100 x90) x80) (= x100 (x106 x58 x90)))))))
(assert (not (and (= (x106 x100 x100) x90) (and (= (x106 x100 x90) x158) (and (= x80 (x106 x158 x100)) (= x58 (x106 x80 x100)))))))
(assert (not (and (= (x106 x90 x90) x58) (and (and (= x80 (x106 x100 x90)) (= x158 (x106 x80 x90))) (= (x106 x90 x58) x100)))))
(assert (not (and (and (= x80 (x106 x90 x158)) (and (= (x106 x58 x90) x100) (= x58 (x106 x80 x90)))) (= (x106 x90 x90) x158))))
(assert (not (and (= (x106 x58 x58) x80) (and (= x100 (x106 x58 x80)) (and (= (x106 x100 x58) x90) (= x158 (x106 x90 x58)))))))
(assert (not (and (and (= x80 (x106 x100 x158)) (and (= x58 (x106 x80 x100)) (= x90 (x106 x58 x100)))) (= (x106 x100 x100) x158))))
(assert (not (and (= (x106 x80 x80) x100) (and (= (x106 x80 x100) x158) (and (= x58 (x106 x158 x80)) (= (x106 x58 x80) x90))))))
(assert (not (and (= (x106 x80 x80) x58) (and (= (x106 x80 x58) x90) (and (= (x106 x90 x80) x158) (= x100 (x106 x158 x80)))))))
(assert (not (and (and (= (x106 x100 x80) x158) (and (= (x106 x158 x100) x90) (= (x106 x90 x100) x58))) (= x80 (x106 x100 x100)))))
(assert (not (and (and (and (= x58 (x106 x158 x80)) (= (x106 x90 x80) x158)) (= x90 (x106 x80 x100))) (= x100 (x106 x80 x80)))))
(assert (not (and (and (and (= x158 (x106 x90 x58)) (= (x106 x158 x58) x100)) (= (x106 x58 x80) x90)) (= (x106 x58 x58) x80))))
(assert (not (and (and (and (= (x106 x58 x80) x90) (= (x106 x90 x80) x100)) (= x58 (x106 x80 x158))) (= x158 (x106 x80 x80)))))
(assert (not (and (= x158 (x106 x58 x58)) (and (and (= (x106 x90 x58) x100) (= x90 (x106 x80 x58))) (= x80 (x106 x58 x158))))))
(assert (not (and (= (x106 x80 x80) x158) (and (= (x106 x80 x158) x58) (and (= (x106 x58 x80) x100) (= (x106 x100 x80) x90))))))
(assert (not (and (= (x106 x90 x90) x80) (and (= x100 (x106 x90 x80)) (and (= x58 (x106 x158 x90)) (= x158 (x106 x100 x90)))))))
(assert (not (and (= x100 (x106 x80 x80)) (and (= (x106 x80 x100) x58) (and (= (x106 x58 x80) x90) (= x158 (x106 x90 x80)))))))
(assert (not (and (and (and (= x58 (x106 x100 x158)) (= (x106 x90 x158) x100)) (= x90 (x106 x158 x80))) (= (x106 x158 x158) x80))))
(assert (not (and (= x100 (x106 x90 x90)) (and (and (= (x106 x80 x90) x58) (= (x106 x158 x90) x80)) (= x158 (x106 x90 x100))))))
(assert (not (and (and (= x90 (x106 x100 x158)) (and (= (x106 x80 x100) x58) (= (x106 x90 x100) x80))) (= (x106 x100 x100) x158))))
(assert (not (and (and (and (= (x106 x58 x80) x100) (= (x106 x90 x80) x58)) (= x90 (x106 x80 x158))) (= (x106 x80 x80) x158))))
(assert (not (and (= x100 (x106 x80 x80)) (and (and (= x58 (x106 x90 x80)) (= (x106 x58 x80) x158)) (= (x106 x80 x100) x90)))))
(assert (let ((x52 (x106 x58 x90)) (x134 (x106 x80 x90)) (x21 (x106 x58 x100)) (x149 (x106 x100 x58)) (x140 (x106 x100 x100)) (x64 (x106 x90 x158)) (x13 (x106 x100 x80)) (x51 (x106 x90 x90)) (x91 (x106 x90 x100)) (x81 (x106 x80 x158)) (x28 (x106 x158 x158)) (x146 (x106 x80 x58)) (x85 (x106 x100 x90)) (x43 (x106 x80 x100)) (x17 (x106 x90 x58)) (x115 (x106 x90 x80)) (x152 (x106 x158 x90)) (x151 (x106 x58 x158)) (x45 (x106 x100 x158)) (x23 (x106 x158 x80)) (x109 (x106 x80 x80)) (x128 (x106 x58 x80)) (x36 (x106 x158 x58)) (x68 (x106 x158 x100)) (x124 (x106 x58 x58))) (let ((x144 (= x109 x100)) (x112 (= x51 x58)) (x73 (= x128 x90)) (x63 (= x100 x13)) (x103 (= x68 x58)) (x25 (= x23 x58)) (x69 (= x115 x58)) (x155 (= x58 x52)) (x150 (= x100 x17)) (x4 (= x91 x100)) (x138 (= x115 x100)) (x105 (= x80 x124)) (x66 (= x140 x80)) (x12 (= x109 x80)) (x61 (= x28 x100)) (x56 (= x158 x140)) (x54 (= x13 x90)) (x27 (= x43 x58)) (x48 (= x152 x158)) (x121 (= x58 x91)) (x101 (= x146 x58)) (x120 (= x80 x23)) (x126 (= x158 x149)) (x98 (= x23 x100)) (x117 (= x58 x124)) (x127 (= x158 x45)) (x119 (= x28 x58)) (x76 (= x90 x140)) (x16 (= x128 x100)) (x79 (= x128 x58)) (x131 (= x151 x158)) (x77 (= x100 x52)) (x30 (= x152 x90)) (x92 (= x134 x100)) (x94 (= x80 x52)) (x50 (= x45 x80)) (x141 (= x158 x146)) (x130 (= x151 x90)) (x156 (= x158 x52)) (x5 (= x21 x100)) (x22 (= x58 x134)) (x44 (= x58 x140)) (x33 (= x100 x68)) (x154 (= x100 x124)) (x14 (= x152 x58)) (x9 (= x134 x90)) (x96 (= x80 x64)) (x83 (= x36 x58)) (x35 (= x17 x58)) (x40 (= x81 x80)) (x19 (= x100 x140)) (x108 (= x43 x100)) (x62 (= x80 x85)) (x38 (= x64 x158)) (x114 (= x80 x149)) (x75 (= x17 x90)) (x123 (= x80 x68)) (x148 (= x100 x36)) (x82 (= x158 x91)) (x74 (= x100 x51)) (x135 (= x100 x146)) (x116 (= x80 x13)) (x104 (= x81 x158)) (x118 (= x90 x85)) (x133 (= x90 x91)) (x34 (= x23 x90)) (x137 (= x158 x43)) (x24 (= x151 x58)) (x93 (= x90 x52)) (x60 (= x158 x28)) (x142 (= x36 x80)) (x67 (= x58 x21)) (x20 (= x64 x58)) (x87 (= x81 x90)) (x111 (= x80 x17)) (x47 (= x81 x100)) (x86 (= x91 x80)) (x65 (= x158 x21)) (x41 (= x45 x100)) (x32 (= x21 x80)) (x11 (= x115 x90)) (x3 (= x43 x80)) (x57 (= x90 x149)) (x113 (= x146 x90)) (x136 (= x80 x146)) (x59 (= x109 x90)) (x8 (= x149 x100)) (x145 (= x90 x124)) (x71 (= x51 x90)) (x143 (= x85 x58)) (x78 (= x158 x115)) (x55 (= x109 x158)) (x39 (= x158 x17)) (x26 (= x36 x158)) (x53 (= x158 x134)) (x107 (= x90 x43)) (x46 (= x80 x134)) (x122 (= x151 x80)) (x110 (= x58 x81)) (x2 (= x85 x100)) (x102 (= x51 x80)) (x157 (= x58 x109)) (x88 (= x90 x36)) (x139 (= x58 x149)) (x7 (= x90 x45)) (x132 (= x28 x80)) (x42 (= x90 x21)) (x89 (= x158 x68)) (x18 (= x80 x115)) (x95 (= x152 x100)) (x15 (= x58 x45)) (x31 (= x158 x124)) (x99 (= x51 x158)) (x153 (= x158 x13)) (x29 (= x13 x58)) (x72 (= x64 x90)) (x49 (= x90 x28)) (x1 (= x100 x64)) (x10 (= x68 x90)) (x6 (= x80 x128)) (x129 (= x85 x158)) (x37 (= x80 x152)) (x70 (= x100 x151)) (x125 (= x23 x158)) (x147 (= x128 x158))) (and (and (or (or (and x31 x31) (or (or (or (and x147 x141) (and x156 x39)) (and x65 x126)) (and x131 x26))) (or (or (or (or (or (or (and x137 x153) (or (and x78 x53) (and x55 x55))) (and x125 x104)) (and x141 x147)) (or (or (or (or (and x99 x99) (and x53 x78)) (and x82 x129)) (and x48 x38)) (and x156 x39))) (or (or (or (and x56 x56) (or (and x82 x129) (and x137 x153))) (and x127 x89)) (and x65 x126))) (or (and x131 x26) (or (and x60 x60) (or (or (and x104 x125) (and x48 x38)) (and x89 x127)))))) (and (and (or (or (or (or (or (or (and x37 x96) (and x120 x40)) (and x123 x50)) (and x132 x132)) (and x122 x142)) (or (or (or (or (or (and x3 x116) (or (and x12 x12) (and x18 x46))) (and x120 x40)) (and x136 x6)) (or (or (or (or (and x46 x18) (and x102 x102)) (and x62 x86)) (and x96 x37)) (and x94 x111))) (or (or (and x123 x50) (or (or (and x62 x86) (and x3 x116)) (and x66 x66))) (and x114 x32)))) (or (and x105 x105) (or (and x122 x142) (or (or (and x6 x136) (and x94 x111)) (and x114 x32))))) (or (or (and x145 x145) (or (and x130 x88) (or (or (and x75 x93) (and x113 x73)) (and x57 x42)))) (or (or (and x130 x88) (or (and x49 x49) (or (and x10 x7) (or (and x34 x87) (and x72 x30))))) (or (or (or (and x75 x93) (or (or (and x133 x118) (or (and x9 x11) (and x71 x71))) (and x30 x72))) (or (and x113 x73) (or (and x87 x34) (or (or (and x9 x11) (and x59 x59)) (and x54 x107))))) (or (or (or (and x76 x76) (or (and x133 x118) (and x54 x107))) (and x7 x10)) (and x57 x42)))))) (or (or (or (and x70 x148) (or (and x61 x61) (or (or (and x98 x47) (and x1 x95)) (and x33 x41)))) (or (or (or (or (or (or (and x138 x92) (and x74 x74)) (and x4 x2)) (and x1 x95)) (and x77 x150)) (or (and x135 x16) (or (and x47 x98) (or (and x108 x63) (or (and x144 x144) (and x138 x92)))))) (or (and x8 x5) (or (or (or (and x108 x63) (and x2 x4)) (and x19 x19)) (and x41 x33))))) (or (and x154 x154) (or (or (or (and x150 x77) (and x16 x135)) (and x8 x5)) (and x70 x148)))))) (or (or (or (or (or (or (or (or (and x22 x69) (and x157 x157)) (and x29 x27)) (and x110 x25)) (and x79 x101)) (or (and x35 x155) (or (and x14 x20) (or (or (and x22 x69) (and x112 x112)) (and x121 x143))))) (or (and x67 x139) (or (and x15 x103) (or (or (and x121 x143) (and x29 x27)) (and x44 x44))))) (or (or (or (and x15 x103) (or (and x20 x14) (and x25 x110))) (and x119 x119)) (and x24 x83))) (or (and x117 x117) (or (and x24 x83) (or (or (and x155 x35) (and x101 x79)) (and x139 x67)))))))))
(assert (not (and (= x90 (x106 x100 x100)) (and (and (= x158 (x106 x80 x100)) (= (x106 x58 x100) x80)) (= (x106 x100 x90) x58)))))
(assert (not (and (and (= x158 (x106 x80 x90)) (and (= x100 (x106 x58 x80)) (= (x106 x158 x80) x58))) (= (x106 x80 x80) x90))))
(assert (not (and (and (= (x106 x90 x158) x100) (and (= (x106 x100 x90) x80) (= x58 (x106 x80 x90)))) (= x158 (x106 x90 x90)))))
(assert (not (and (and (= (x106 x100 x58) x90) (and (= x158 (x106 x80 x100)) (= (x106 x90 x100) x80))) (= (x106 x100 x100) x58))))
(assert (not (and (and (= (x106 x100 x80) x90) (and (= (x106 x90 x100) x58) (= x158 (x106 x58 x100)))) (= x80 (x106 x100 x100)))))
(assert (not (and (and (and (= x158 (x106 x58 x90)) (= x58 (x106 x100 x90))) (= (x106 x90 x80) x100)) (= x80 (x106 x90 x90)))))
(assert (not (and (and (= x80 (x106 x90 x58)) (and (= (x106 x100 x90) x158) (= x100 (x106 x80 x90)))) (= (x106 x90 x90) x58))))
(assert (not (and (= (x106 x100 x100) x90) (and (and (= x158 (x106 x58 x100)) (= x58 (x106 x80 x100))) (= x80 (x106 x100 x90))))))
(assert (not (and (= x158 (x106 x90 x90)) (and (= x100 (x106 x90 x158)) (and (= x80 (x106 x58 x90)) (= x58 (x106 x100 x90)))))))
(assert (not (and (= x58 (x106 x80 x80)) (and (= x90 (x106 x80 x58)) (and (= (x106 x90 x80) x100) (= x158 (x106 x100 x80)))))))
(assert (or (or (and (not (= x58 (x106 x158 (x106 x158 x58)))) (and (not (= x158 (x106 x158 (x106 x158 x158)))) (and (and (not (= x80 (x106 x158 (x106 x158 x80)))) (not (= x90 (x106 x158 (x106 x158 x90))))) (not (= x100 (x106 x158 (x106 x158 x100))))))) (or (and (and (and (not (= (x106 x100 (x106 x100 x100)) x100)) (and (not (= x80 (x106 x100 (x106 x100 x80)))) (not (= x90 (x106 x100 (x106 x100 x90)))))) (not (= (x106 x100 (x106 x100 x158)) x158))) (not (= (x106 x100 (x106 x100 x58)) x58))) (or (and (and (not (= (x106 x90 (x106 x90 x158)) x158)) (and (not (= (x106 x90 (x106 x90 x100)) x100)) (and (not (= (x106 x90 (x106 x90 x80)) x80)) (not (= x90 (x106 x90 (x106 x90 x90))))))) (not (= (x106 x90 (x106 x90 x58)) x58))) (and (not (= (x106 x80 (x106 x80 x58)) x58)) (and (not (= x158 (x106 x80 (x106 x80 x158)))) (and (not (= (x106 x80 (x106 x80 x100)) x100)) (and (not (= (x106 x80 (x106 x80 x90)) x90)) (not (= x80 (x106 x80 (x106 x80 x80))))))))))) (and (not (= (x106 x58 (x106 x58 x58)) x58)) (and (not (= x158 (x106 x58 (x106 x58 x158)))) (and (and (not (= (x106 x58 (x106 x58 x80)) x80)) (not (= x90 (x106 x58 (x106 x58 x90))))) (not (= (x106 x58 (x106 x58 x100)) x100)))))))
(assert (not (and (= x90 (x106 x80 x80)) (and (and (= x158 (x106 x58 x80)) (= x58 (x106 x100 x80))) (= x100 (x106 x80 x90))))))
(assert (not (and (= x158 (x106 x100 x100)) (and (= x58 (x106 x100 x158)) (and (= (x106 x80 x100) x90) (= (x106 x58 x100) x80))))))
(assert (not (and (= x80 (x106 x90 x90)) (and (and (= x158 (x106 x100 x90)) (= (x106 x58 x90) x100)) (= x58 (x106 x90 x80))))))
(assert (not (and (and (and (= x100 (x106 x158 x58)) (= (x106 x100 x58) x90)) (= x158 (x106 x58 x80))) (= (x106 x58 x58) x80))))
(assert (not (and (and (and (= x80 (x106 x58 x158)) (= x58 (x106 x100 x158))) (= x100 (x106 x158 x90))) (= (x106 x158 x158) x90))))
(assert (not (and (= (x106 x58 x58) x158) (and (= x90 (x106 x58 x158)) (and (= x80 (x106 x100 x58)) (= x100 (x106 x90 x58)))))))
(assert (not (and (and (and (= x90 (x106 x58 x158)) (= (x106 x90 x158) x100)) (= (x106 x158 x80) x58)) (= x80 (x106 x158 x158)))))
(assert (not (and (and (and (= (x106 x90 x100) x80) (= x90 (x106 x58 x100))) (= x58 (x106 x100 x158))) (= x158 (x106 x100 x100)))))
(assert (not (and (and (and (= x158 (x106 x90 x100)) (= (x106 x158 x100) x80)) (= (x106 x100 x58) x90)) (= x58 (x106 x100 x100)))))
(assert (not (and (= x100 (x106 x90 x90)) (and (and (= (x106 x80 x90) x158) (= (x106 x58 x90) x80)) (= (x106 x90 x100) x58)))))
(assert (not (and (and (and (= (x106 x100 x80) x90) (= x158 (x106 x90 x80))) (= (x106 x80 x58) x100)) (= x58 (x106 x80 x80)))))
(assert (not (and (= (x106 x58 x58) x80) (and (and (= x158 (x106 x100 x58)) (= x90 (x106 x158 x58))) (= (x106 x58 x80) x100)))))
(assert (not (and (and (= x100 (x106 x80 x158)) (and (= x58 (x106 x90 x80)) (= (x106 x100 x80) x90))) (= (x106 x80 x80) x158))))
(assert (not (and (and (and (= x158 (x106 x90 x58)) (= (x106 x80 x58) x90)) (= (x106 x58 x100) x80)) (= (x106 x58 x58) x100))))
(assert (let ((x34 (x106 x100 x80)) (x75 (x106 x158 x100)) (x107 (x106 x80 x100)) (x93 (x106 x158 x80)) (x113 (x106 x158 x58)) (x118 (x106 x90 x58)) (x30 (x106 x80 x58)) (x87 (x106 x100 x100)) (x42 (x106 x58 x90)) (x72 (x106 x100 x90)) (x59 (x106 x90 x158)) (x10 (x106 x100 x158)) (x73 (x106 x158 x158)) (x57 (x106 x58 x80)) (x49 (x106 x158 x90)) (x88 (x106 x58 x158)) (x7 (x106 x100 x58)) (x71 (x106 x90 x90)) (x133 (x106 x80 x90)) (x76 (x106 x80 x158)) (x130 (x106 x58 x100)) (x11 (x106 x90 x100)) (x54 (x106 x80 x80)) (x9 (x106 x90 x80)) (x145 (x106 x58 x58))) (and (and (and (and (and (and (and (and (or (or (or (= x71 x100) (or (= x71 x80) (= x71 x90))) (= x158 x71)) (= x71 x58)) (or (= x9 x58) (or (= x158 x9) (or (= x9 x100) (or (= x9 x90) (= x80 x9)))))) (or (or (or (= x11 x100) (or (= x11 x80) (= x90 x11))) (= x158 x11)) (= x58 x11))) (or (or (or (= x100 x59) (or (= x59 x90) (= x59 x80))) (= x59 x158)) (= x59 x58))) (or (= x118 x58) (or (or (= x100 x118) (or (= x80 x118) (= x90 x118))) (= x118 x158)))) (and (or (= x30 x58) (or (= x158 x30) (or (or (= x30 x80) (= x30 x90)) (= x100 x30)))) (and (and (or (or (= x158 x107) (or (= x100 x107) (or (= x107 x80) (= x90 x107)))) (= x58 x107)) (and (or (= x58 x54) (or (= x158 x54) (or (= x100 x54) (or (= x54 x90) (= x54 x80))))) (or (= x133 x58) (or (= x133 x158) (or (= x133 x100) (or (= x133 x90) (= x80 x133))))))) (or (or (= x158 x76) (or (= x100 x76) (or (= x80 x76) (= x90 x76)))) (= x76 x58))))) (and (or (or (or (= x100 x7) (or (= x90 x7) (= x7 x80))) (= x7 x158)) (= x58 x7)) (and (or (= x10 x58) (or (= x158 x10) (or (= x10 x100) (or (= x80 x10) (= x90 x10))))) (and (or (or (= x158 x87) (or (or (= x87 x80) (= x90 x87)) (= x87 x100))) (= x87 x58)) (and (or (or (or (or (= x34 x80) (= x34 x90)) (= x100 x34)) (= x34 x158)) (= x58 x34)) (or (= x58 x72) (or (or (= x72 x100) (or (= x80 x72) (= x72 x90))) (= x158 x72)))))))) (and (and (and (and (or (or (= x158 x93) (or (= x100 x93) (or (= x93 x90) (= x80 x93)))) (= x93 x58)) (or (or (= x158 x49) (or (= x49 x100) (or (= x49 x90) (= x49 x80)))) (= x58 x49))) (or (= x75 x58) (or (= x75 x158) (or (or (= x75 x80) (= x90 x75)) (= x100 x75))))) (or (= x73 x58) (or (or (or (= x73 x80) (= x73 x90)) (= x100 x73)) (= x73 x158)))) (or (= x113 x58) (or (or (= x100 x113) (or (= x113 x90) (= x80 x113))) (= x158 x113))))) (and (and (and (or (or (or (= x100 x130) (or (= x80 x130) (= x90 x130))) (= x158 x130)) (= x58 x130)) (and (or (or (= x158 x42) (or (= x42 x100) (or (= x42 x90) (= x42 x80)))) (= x58 x42)) (or (or (= x158 x57) (or (or (= x57 x90) (= x80 x57)) (= x100 x57))) (= x58 x57)))) (or (= x88 x58) (or (= x158 x88) (or (= x88 x100) (or (= x80 x88) (= x90 x88)))))) (or (= x145 x58) (or (or (or (= x80 x145) (= x145 x90)) (= x145 x100)) (= x158 x145)))))))
(assert (not (and (and (and (= (x106 x58 x100) x158) (= x90 (x106 x158 x100))) (= x58 (x106 x100 x80))) (= x80 (x106 x100 x100)))))
(assert (not (and (and (and (= x158 (x106 x100 x80)) (= x58 (x106 x158 x80))) (= (x106 x80 x90) x100)) (= (x106 x80 x80) x90))))
(assert (not (and (= (x106 x100 x100) x158) (and (= x80 (x106 x100 x158)) (and (= (x106 x80 x100) x90) (= x58 (x106 x90 x100)))))))
(assert (not (and (and (= x100 (x106 x158 x80)) (and (= x58 (x106 x100 x158)) (= x90 (x106 x58 x158)))) (= x80 (x106 x158 x158)))))
(assert (not (and (and (= x100 (x106 x80 x58)) (and (= (x106 x158 x80) x90) (= (x106 x100 x80) x158))) (= (x106 x80 x80) x58))))
(assert (not (and (and (= (x106 x90 x58) x80) (and (= x100 (x106 x158 x90)) (= (x106 x80 x90) x158))) (= x58 (x106 x90 x90)))))
(assert (not (and (= (x106 x58 x58) x90) (and (and (= (x106 x158 x58) x80) (= x158 (x106 x100 x58))) (= (x106 x58 x90) x100)))))
(assert (let ((x87 (x106 x100 x100)) (x88 (x106 x158 x58)) (x118 (x106 x58 x90)) (x10 (x106 x158 x100)) (x130 (x106 x100 x58)) (x76 (x106 x158 x80)) (x93 (x106 x80 x158)) (x11 (x106 x100 x90)) (x72 (x106 x90 x100)) (x34 (x106 x80 x100)) (x49 (x106 x90 x158)) (x57 (x106 x80 x58)) (x133 (x106 x90 x80)) (x73 (x106 x158 x158)) (x7 (x106 x58 x100)) (x75 (x106 x100 x158)) (x107 (x106 x100 x80)) (x59 (x106 x158 x90)) (x9 (x106 x80 x90)) (x42 (x106 x90 x58)) (x30 (x106 x58 x80)) (x54 (x106 x80 x80)) (x71 (x106 x90 x90)) (x113 (x106 x58 x158)) (x145 (x106 x58 x58))) (and (and (and (and (and (and (and (and (and (and (and (and (not (= x75 x11)) (and (not (= x107 x11)) (not (= x11 x87)))) (not (= x130 x11))) (not (= x107 x87))) (not (= x75 x107))) (not (= x107 x130))) (not (= x87 x75))) (not (= x87 x130))) (not (= x75 x130))) (and (and (not (= x93 x57)) (and (and (not (= x93 x34)) (and (and (not (= x54 x93)) (and (not (= x54 x34)) (and (not (= x57 x9)) (and (not (= x93 x9)) (and (not (= x54 x9)) (not (= x34 x9))))))) (not (= x57 x54)))) (not (= x34 x57)))) (and (not (= x49 x42)) (and (and (and (and (and (and (not (= x42 x71)) (and (and (not (= x133 x71)) (not (= x71 x72))) (not (= x49 x71)))) (not (= x133 x72))) (not (= x49 x133))) (not (= x42 x133))) (not (= x49 x72))) (not (= x72 x42)))))) (and (not (= x73 x88)) (and (not (= x88 x10)) (and (not (= x73 x10)) (and (and (not (= x76 x73)) (and (not (= x76 x10)) (and (and (and (not (= x59 x10)) (not (= x59 x76))) (not (= x73 x59))) (not (= x59 x88))))) (not (= x88 x76))))))) (and (and (not (= x7 x145)) (and (not (= x7 x113)) (and (and (not (= x30 x113)) (and (and (not (= x145 x118)) (and (not (= x113 x118)) (and (not (= x118 x30)) (not (= x118 x7))))) (not (= x30 x7)))) (not (= x145 x30))))) (not (= x113 x145)))) (and (and (and (and (and (not (= x30 x76)) (and (not (= x107 x30)) (and (and (and (and (and (not (= x30 x133)) (and (and (not (= x133 x54)) (not (= x133 x107))) (not (= x76 x133)))) (not (= x107 x54))) (not (= x54 x76))) (not (= x54 x30))) (not (= x107 x76))))) (and (not (= x118 x59)) (and (not (= x118 x11)) (and (and (and (not (= x9 x59)) (and (not (= x9 x11)) (and (not (= x71 x118)) (and (not (= x59 x71)) (and (not (= x71 x9)) (not (= x71 x11))))))) (not (= x9 x118))) (not (= x59 x11)))))) (and (not (= x10 x7)) (and (and (and (not (= x7 x34)) (and (not (= x34 x10)) (and (and (and (not (= x10 x72)) (and (not (= x72 x87)) (not (= x72 x34)))) (not (= x72 x7))) (not (= x87 x34))))) (not (= x10 x87))) (not (= x87 x7))))) (and (not (= x113 x73)) (and (and (and (not (= x113 x93)) (and (not (= x93 x73)) (and (and (not (= x49 x113)) (and (and (not (= x75 x49)) (not (= x49 x93))) (not (= x49 x73)))) (not (= x93 x75))))) (not (= x75 x73))) (not (= x75 x113))))) (and (and (and (and (not (= x57 x145)) (and (and (not (= x57 x130)) (and (not (= x42 x145)) (and (not (= x88 x42)) (and (not (= x57 x42)) (not (= x130 x42)))))) (not (= x57 x88)))) (not (= x88 x130))) (not (= x130 x145))) (not (= x88 x145)))))))
(assert (and (and (not (= x58 x100)) (and (not (= x158 x100)) (and (and (and (not (= x80 x100)) (and (not (= x58 x90)) (and (not (= x158 x90)) (and (not (= x100 x90)) (not (= x90 x80)))))) (not (= x80 x158))) (not (= x58 x80))))) (not (= x58 x158))))
(assert (not (and (= x90 (x106 x58 x58)) (and (and (= (x106 x100 x58) x80) (= x100 (x106 x158 x58))) (= (x106 x58 x90) x158)))))
(assert (not (and (= (x106 x158 x158) x58) (and (and (= x90 (x106 x100 x158)) (= (x106 x90 x158) x80)) (= x100 (x106 x158 x58))))))
(assert (not (and (= (x106 x80 x80) x90) (and (and (= (x106 x158 x80) x100) (= (x106 x58 x80) x158)) (= (x106 x80 x90) x58)))))
(assert (not (and (and (= x158 (x106 x90 x58)) (and (= x100 (x106 x158 x90)) (= (x106 x100 x90) x80))) (= x58 (x106 x90 x90)))))
(assert (not (and (= (x106 x158 x158) x90) (and (and (= (x106 x80 x158) x100) (= (x106 x100 x158) x58)) (= x80 (x106 x158 x90))))))
(assert (not (and (= x90 (x106 x80 x80)) (and (and (= x158 (x106 x100 x80)) (= (x106 x58 x80) x100)) (= (x106 x80 x90) x58)))))
(assert (not (and (and (= (x106 x90 x158) x80) (and (= x58 (x106 x100 x90)) (= (x106 x80 x90) x100))) (= (x106 x90 x90) x158))))
(assert (not (and (and (= (x106 x58 x158) x100) (and (= x80 (x106 x90 x58)) (= (x106 x100 x58) x90))) (= (x106 x58 x58) x158))))
(assert (not (and (= (x106 x158 x158) x90) (and (and (= x100 (x106 x58 x158)) (= x80 (x106 x100 x158))) (= x58 (x106 x158 x90))))))
(assert (not (and (and (and (= x80 (x106 x58 x158)) (= (x106 x80 x158) x100)) (= (x106 x158 x90) x58)) (= (x106 x158 x158) x90))))
(assert (not (and (= x58 (x106 x158 x158)) (and (= x80 (x106 x158 x58)) (and (= (x106 x100 x158) x90) (= x100 (x106 x80 x158)))))))
(assert (not (and (= (x106 x90 x90) x100) (and (and (= x158 (x106 x80 x90)) (= x58 (x106 x158 x90))) (= (x106 x90 x100) x80)))))
(assert (not (and (and (and (= (x106 x158 x90) x100) (= x158 (x106 x58 x90))) (= x58 (x106 x90 x80))) (= (x106 x90 x90) x80))))
(assert (not (and (= x90 (x106 x158 x158)) (and (= x80 (x106 x158 x90)) (and (= (x106 x58 x158) x100) (= x58 (x106 x80 x158)))))))
(assert (not (and (= x80 (x106 x158 x158)) (and (= x90 (x106 x158 x80)) (and (= x100 (x106 x58 x158)) (= x58 (x106 x90 x158)))))))
(assert (and (or (or (= x158 (x106 (x106 x58 x158) x58)) (or (= x100 (x106 (x106 x58 x100) x58)) (or (= x90 (x106 (x106 x58 x90) x58)) (= (x106 (x106 x58 x80) x58) x80)))) (= x58 (x106 (x106 x58 x58) x58))) (and (or (or (= x158 (x106 (x106 x158 x158) x158)) (or (= x100 (x106 (x106 x158 x100) x158)) (or (= x90 (x106 (x106 x158 x90) x158)) (= (x106 (x106 x158 x80) x158) x80)))) (= x58 (x106 (x106 x158 x58) x158))) (and (or (= x58 (x106 (x106 x100 x58) x100)) (or (or (or (= x90 (x106 (x106 x100 x90) x100)) (= x80 (x106 (x106 x100 x80) x100))) (= x100 (x106 (x106 x100 x100) x100))) (= x158 (x106 (x106 x100 x158) x100)))) (and (or (or (or (or (= (x106 (x106 x90 x90) x90) x90) (= (x106 (x106 x90 x80) x90) x80)) (= x100 (x106 (x106 x90 x100) x90))) (= (x106 (x106 x90 x158) x90) x158)) (= x58 (x106 (x106 x90 x58) x90))) (or (= (x106 (x106 x80 x58) x80) x58) (or (or (= x100 (x106 (x106 x80 x100) x80)) (or (= x90 (x106 (x106 x80 x90) x80)) (= (x106 (x106 x80 x80) x80) x80))) (= (x106 (x106 x80 x158) x80) x158))))))))
(assert (not (and (= x100 (x106 x58 x58)) (and (= x158 (x106 x58 x100)) (and (= x80 (x106 x158 x58)) (= (x106 x80 x58) x90))))))
(assert (not (and (= (x106 x58 x58) x90) (and (and (= (x106 x158 x58) x80) (= (x106 x80 x58) x100)) (= x158 (x106 x58 x90))))))
(assert (not (and (= (x106 x100 x100) x80) (and (and (= (x106 x90 x100) x158) (= (x106 x58 x100) x90)) (= x58 (x106 x100 x80))))))
(assert (not (and (and (and (= x58 (x106 x80 x158)) (= (x106 x58 x158) x90)) (= (x106 x158 x100) x80)) (= (x106 x158 x158) x100))))
(assert (not (and (and (= x90 (x106 x80 x158)) (and (= (x106 x100 x80) x58) (= x100 (x106 x90 x80)))) (= (x106 x80 x80) x158))))
(assert (not (and (= (x106 x58 x58) x80) (and (and (= x158 (x106 x100 x58)) (= x100 (x106 x90 x58))) (= (x106 x58 x80) x90)))))
(assert (not (and (= (x106 x80 x80) x100) (and (and (= x90 (x106 x158 x80)) (= (x106 x58 x80) x158)) (= x58 (x106 x80 x100))))))
(assert (not (and (= (x106 x100 x100) x90) (and (and (= x58 (x106 x158 x100)) (= (x106 x80 x100) x158)) (= (x106 x100 x90) x80)))))
(assert (not (and (and (and (= (x106 x158 x100) x58) (= (x106 x58 x100) x90)) (= (x106 x100 x80) x158)) (= (x106 x100 x100) x80))))
(assert (not (and (and (and (= (x106 x158 x100) x58) (= x158 (x106 x90 x100))) (= x90 (x106 x100 x80))) (= x80 (x106 x100 x100)))))
(assert (not (and (and (and (= x90 (x106 x58 x80)) (= (x106 x100 x80) x58)) (= (x106 x80 x158) x100)) (= x158 (x106 x80 x80)))))
(assert (not (and (and (= x90 (x106 x158 x100)) (and (= (x106 x80 x158) x58) (= (x106 x90 x158) x80))) (= (x106 x158 x158) x100))))
(assert (let ((x57 (x106 x80 x58)) (x102 (x106 x58 x80)) (x108 (x106 x58 x158)) (x39 (x106 x58 x58)) (x118 (x106 x90 x158)) (x133 (x106 x90 x58)) (x146 (x106 x100 x100)) (x76 (x106 x100 x90)) (x11 (x106 x90 x80)) (x113 (x106 x80 x100)) (x9 (x106 x90 x90)) (x42 (x106 x80 x158)) (x59 (x106 x90 x100)) (x30 (x106 x158 x90)) (x92 (x106 x158 x158)) (x138 (x106 x158 x58)) (x140 (x106 x158 x100)) (x66 (x106 x58 x100)) (x62 (x106 x100 x58)) (x107 (x106 x80 x90)) (x72 (x106 x58 x90)) (x51 (x106 x158 x80)) (x73 (x106 x80 x80)) (x128 (x106 x100 x158)) (x145 (x106 x100 x80))) (let ((x152 (= x158 x73)) (x78 (= x58 x128)) (x50 (= x158 x146)) (x52 (= x58 x11)) (x49 (= x11 x90)) (x155 (= x72 x58)) (x157 (= x57 x100)) (x43 (= x90 x113)) (x45 (= x76 x100)) (x6 (= x51 x90)) (x110 (= x57 x158)) (x131 (= x80 x39)) (x125 (= x90 x138)) (x143 (= x62 x100)) (x124 (= x30 x80)) (x123 (= x158 x113)) (x5 (= x158 x128)) (x14 (= x158 x66)) (x55 (= x58 x92)) (x121 (= x100 x138)) (x63 (= x80 x92)) (x3 (= x80 x146)) (x53 (= x58 x42)) (x103 (= x158 x62)) (x116 (= x113 x80)) (x4 (= x128 x80)) (x156 (= x80 x108)) (x141 (= x80 x57)) (x47 (= x42 x100)) (x88 (= x73 x80)) (x32 (= x118 x90)) (x38 (= x62 x90)) (x91 (= x100 x73)) (x135 (= x42 x158)) (x77 (= x51 x158)) (x25 (= x133 x158)) (x132 (= x145 x58)) (x136 (= x90 x140)) (x12 (= x59 x90)) (x60 (= x80 x66)) (x122 (= x128 x90)) (x126 (= x138 x80)) (x71 (= x90 x9)) (x127 (= x102 x80)) (x83 (= x138 x58)) (x147 (= x133 x80)) (x104 (= x90 x39)) (x18 (= x90 x76)) (x120 (= x158 x145)) (x35 (= x102 x58)) (x151 (= x113 x58)) (x65 (= x80 x62)) (x149 (= x100 x59)) (x94 (= x146 x58)) (x1 (= x100 x140)) (x41 (= x92 x100)) (x8 (= x158 x92)) (x7 (= x107 x90)) (x16 (= x158 x118)) (x33 (= x128 x100)) (x93 (= x73 x90)) (x153 (= x66 x90)) (x21 (= x113 x100)) (x89 (= x72 x80)) (x109 (= x145 x90)) (x134 (= x11 x100)) (x142 (= x90 x92)) (x95 (= x51 x100)) (x34 (= x9 x100)) (x139 (= x57 x58)) (x36 (= x59 x58)) (x119 (= x158 x39)) (x87 (= x158 x9)) (x98 (= x118 x100)) (x129 (= x90 x72)) (x61 (= x30 x158)) (x31 (= x100 x102)) (x137 (= x108 x90)) (x130 (= x80 x11)) (x114 (= x90 x42)) (x105 (= x51 x80)) (x150 (= x158 x140)) (x115 (= x100 x107)) (x19 (= x100 x30)) (x44 (= x102 x158)) (x154 (= x140 x58)) (x10 (= x58 x9)) (x82 (= x90 x102)) (x70 (= x58 x30)) (x22 (= x108 x100)) (x24 (= x58 x62)) (x27 (= x158 x72)) (x23 (= x80 x145)) (x69 (= x100 x133)) (x81 (= x76 x80)) (x13 (= x146 x90)) (x67 (= x133 x58)) (x86 (= x59 x80)) (x96 (= x76 x158)) (x54 (= x80 x9)) (x48 (= x57 x90)) (x40 (= x59 x158)) (x17 (= x58 x107)) (x56 (= x90 x133)) (x37 (= x146 x100)) (x148 (= x58 x51)) (x74 (= x80 x140)) (x144 (= x118 x80)) (x20 (= x108 x158)) (x117 (= x58 x39)) (x101 (= x58 x108)) (x29 (= x39 x100)) (x85 (= x158 x107)) (x26 (= x100 x72)) (x112 (= x100 x66)) (x15 (= x158 x138)) (x75 (= x80 x107)) (x68 (= x145 x100)) (x46 (= x73 x58)) (x79 (= x58 x66)) (x28 (= x76 x58)) (x111 (= x90 x30)) (x99 (= x118 x58)) (x2 (= x42 x80)) (x64 (= x11 x158))) (and (and (and (and (and (and (and (or (or (or x96 (or x85 x87)) x61) x27) (or (or (or x40 (or x64 x87)) x16) x25)) (and (and (or (or x98 (or (or x134 x34) x149)) x69) (or (or x19 (or (or x34 x115) x45)) x26)) (and (and (or x147 (or x144 (or (or x54 x130) x86))) (or (or (or (or x54 x75) x81) x124) x89)) (and (or (or x111 (or x18 (or x7 x71))) x129) (or (or x32 (or (or x49 x71) x12)) x56))))) (and (or (or (or x36 (or x10 x52)) x99) x67) (or (or x70 (or (or x17 x10) x28)) x155))) (and (and (or (or x53 (or x151 (or x46 x17))) x139) (or (or (or (or x52 x46) x132) x148) x35)) (and (and (and (or (or x95 (or (or x91 x134) x68)) x31) (or (or (or (or x91 x115) x21) x47) x157)) (and (and (or (or (or x109 (or x49 x93)) x6) x82) (or (or (or x43 (or x7 x93)) x114) x48)) (and (or x141 (or x2 (or x116 (or x88 x75)))) (or x127 (or (or x23 (or x88 x130)) x105))))) (and (or x110 (or x135 (or (or x85 x152) x123))) (or x44 (or (or (or x152 x64) x120) x77)))))) (and (and (or (or (or x94 (or x151 x36)) x154) x79) (or (or x78 (or (or x132 x28) x94)) x24)) (and (and (and (and (or (or x74 (or (or x86 x116) x3)) x60) (or (or (or x3 (or x81 x23)) x4) x65)) (and (or x153 (or (or (or x12 x43) x13) x136)) (or (or (or (or x109 x18) x13) x122) x38))) (and (or x143 (or (or (or x68 x45) x37) x33)) (or (or x1 (or (or x149 x21) x37)) x112))) (and (or (or (or (or x40 x123) x50) x150) x14) (or (or (or x50 (or x96 x120)) x5) x103))))) (and (and (or (or (or x154 (or x148 x70)) x55) x83) (or x101 (or x55 (or (or x99 x53) x78)))) (and (and (and (or x121 (or x41 (or x1 (or x95 x19)))) (or (or (or x33 (or x98 x47)) x41) x22)) (and (and (or x126 (or x63 (or (or x124 x105) x74))) (or (or x63 (or x4 (or x2 x144))) x156)) (and (or x125 (or x142 (or x136 (or x111 x6)))) (or x137 (or (or x122 (or x32 x114)) x142))))) (and (or (or (or x150 (or x77 x61)) x8) x15) (or x20 (or x8 (or x5 (or x16 x135)))))))) (and (and (or x117 (or (or (or x139 x67) x24) x83)) (or x117 (or x101 (or (or x155 x35) x79)))) (and (and (or (or (or (or x27 x44) x14) x20) x119) (or x119 (or x15 (or (or x25 x110) x103)))) (and (and (or x29 (or (or (or x157 x69) x143) x121)) (or (or (or (or x31 x26) x112) x22) x29)) (and (and (or x104 (or (or (or x56 x48) x38) x125)) (or x104 (or (or x153 (or x82 x129)) x137))) (and (or (or (or (or x141 x147) x65) x126) x131) (or (or x156 (or x60 (or x89 x127))) x131))))))))))
(assert (not (and (and (and (= x90 (x106 x100 x158)) (= (x106 x58 x158) x100)) (= x58 (x106 x158 x80))) (= (x106 x158 x158) x80))))
(assert (let ((x76 (x106 x100 x100)) (x34 (x106 x158 x80)) (x49 (x106 x158 x158)) (x11 (x106 x90 x80)) (x87 (x106 x80 x158)) (x7 (x106 x100 x158)) (x133 (x106 x90 x100)) (x93 (x106 x58 x90)) (x88 (x106 x158 x58)) (x9 (x106 x80 x90)) (x30 (x106 x158 x90)) (x59 (x106 x80 x80)) (x145 (x106 x58 x58)) (x71 (x106 x90 x90)) (x72 (x106 x90 x158)) (x73 (x106 x58 x80)) (x113 (x106 x80 x58)) (x42 (x106 x58 x100)) (x75 (x106 x90 x58)) (x10 (x106 x158 x100)) (x118 (x106 x100 x90)) (x130 (x106 x58 x158)) (x57 (x106 x100 x58)) (x54 (x106 x100 x80)) (x107 (x106 x80 x100))) (or (or (or (or (and (and (and (= x107 x54) (and (= x59 x59) (= x11 x9))) (= x87 x34)) (= x73 x113)) (and (and (and (and (= x9 x11) (= x71 x71)) (= x118 x133)) (= x72 x30)) (= x75 x93))) (and (and (= x10 x7) (and (= x76 x76) (and (= x118 x133) (= x107 x54)))) (= x57 x42))) (and (and (and (and (= x72 x30) (= x34 x87)) (= x7 x10)) (= x49 x49)) (= x130 x88))) (and (and (= x88 x130) (and (= x42 x57) (and (= x93 x75) (= x113 x73)))) (= x145 x145)))))
(assert (not (and (= x90 (x106 x58 x58)) (and (= x100 (x106 x58 x90)) (and (= x158 (x106 x80 x58)) (= (x106 x100 x58) x80))))))
(assert (not (and (= x158 (x106 x58 x58)) (and (= x90 (x106 x58 x158)) (and (= x80 (x106 x90 x58)) (= (x106 x80 x58) x100))))))
(assert (not (and (= x58 (x106 x80 x80)) (and (= (x106 x80 x58) x158) (and (= x90 (x106 x100 x80)) (= (x106 x158 x80) x100))))))
(assert (not (and (and (= (x106 x100 x58) x158) (and (= x80 (x106 x158 x100)) (= (x106 x80 x100) x90))) (= x58 (x106 x100 x100)))))
(assert (not (and (and (= (x106 x90 x80) x158) (and (= (x106 x158 x90) x58) (= x100 (x106 x58 x90)))) (= x80 (x106 x90 x90)))))
(assert (not (and (and (= (x106 x80 x100) x158) (and (= x90 (x106 x158 x80)) (= (x106 x90 x80) x58))) (= (x106 x80 x80) x100))))
(assert (not (and (= (x106 x158 x158) x58) (and (and (= x80 (x106 x100 x158)) (= x100 (x106 x90 x158))) (= x90 (x106 x158 x58))))))
(check-sat)
(exit)
